c Generated map
c Size: 8 * 8, weights in range: 1 to 10, walls: True, with ratio 0.05
c dim 9 of 9
c
p sp 64 101
c graph contains 64 nodes and 101 arcs
c
a 1 9 10
a 9 1 10
a 1 2 6
a 2 1 6
a 2 10 3
a 10 2 3
a 2 3 6
a 3 2 6
a 3 11 7
a 11 3 7
a 3 4 1
a 4 3 1
a 4 12 8
a 12 4 8
a 4 5 9
a 5 4 9
a 5 6 6
a 6 5 6
a 6 7 5
a 7 6 5
a 7 15 4
a 15 7 4
a 7 8 2
a 8 7 2
a 8 16 8
a 16 8 8
a 9 17 1
a 17 9 1
a 9 10 5
a 10 9 5
a 10 18 4
a 18 10 4
a 10 11 9
a 11 10 9
a 11 19 4
a 19 11 4
a 11 12 8
a 12 11 8
a 12 20 4
a 20 12 4
a 15 23 1
a 23 15 1
a 15 16 7
a 16 15 7
a 16 24 4
a 24 16 4
a 17 25 1
a 25 17 1
a 17 18 4
a 18 17 4
a 18 26 6
a 26 18 6
a 18 19 9
a 19 18 9
a 19 27 1
a 27 19 1
a 19 20 5
a 20 19 5
a 20 28 10
a 28 20 10
a 20 21 5
a 21 20 5
a 21 29 3
a 29 21 3
a 21 22 7
a 22 21 7
a 22 30 10
a 30 22 10
a 22 23 6
a 23 22 6
a 23 31 1
a 31 23 1
a 23 24 7
a 24 23 7
a 24 32 3
a 32 24 3
a 25 33 7
a 33 25 7
a 25 26 5
a 26 25 5
a 26 34 9
a 34 26 9
a 26 27 6
a 27 26 6
a 27 35 7
a 35 27 7
a 27 28 1
a 28 27 1
a 28 29 8
a 29 28 8
a 29 37 7
a 37 29 7
a 29 30 4
a 30 29 4
a 30 38 2
a 38 30 2
a 30 31 9
a 31 30 9
a 31 39 3
a 39 31 3
a 31 32 9
a 32 31 9
a 32 40 10
a 40 32 10
a 33 41 3
a 41 33 3
a 33 34 9
a 34 33 9
a 34 42 6
a 42 34 6
a 34 35 9
a 35 34 9
a 35 43 9
a 43 35 9
a 37 45 8
a 45 37 8
a 37 38 7
a 38 37 7
a 38 46 7
a 46 38 7
a 38 39 5
a 39 38 5
a 39 47 3
a 47 39 3
a 39 40 8
a 40 39 8
a 40 48 10
a 48 40 10
a 41 49 10
a 49 41 10
a 41 42 2
a 42 41 2
a 42 50 1
a 50 42 1
a 42 43 4
a 43 42 4
a 43 51 1
a 51 43 1
a 43 44 2
a 44 43 2
a 44 52 2
a 52 44 2
a 44 45 3
a 45 44 3
a 45 53 1
a 53 45 1
a 45 46 5
a 46 45 5
a 46 54 7
a 54 46 7
a 46 47 9
a 47 46 9
a 47 55 5
a 55 47 5
a 47 48 10
a 48 47 10
a 48 56 4
a 56 48 4
a 49 57 2
a 57 49 2
a 49 50 9
a 50 49 9
a 50 58 9
a 58 50 9
a 50 51 2
a 51 50 2
a 51 59 8
a 59 51 8
a 51 52 1
a 52 51 1
a 52 60 1
a 60 52 1
a 52 53 4
a 53 52 4
a 53 61 1
a 61 53 1
a 53 54 8
a 54 53 8
a 54 62 6
a 62 54 6
a 54 55 10
a 55 54 10
a 55 63 5
a 63 55 5
a 55 56 5
a 56 55 5
a 56 64 6
a 64 56 6
a 57 58 8
a 58 57 8
a 58 59 8
a 59 58 8
a 59 60 3
a 60 59 3
a 60 61 5
a 61 60 5
a 61 62 7
a 62 61 7
a 62 63 9
a 63 62 9
a 63 64 10
a 64 63 10
